(set-info :smt-lib-version 2.6)
(set-logic QF_NIA)
(set-info :source |
Generated by: Cristina Borralleras, Daniel Larraz, Albert Oliveras, Enric Rodriguez-Carbonell, Albert Rubio
Generated on: 2017-04-27
Generator: VeryMax
Application: Termination proving
Target solver: barcelogic
|)
(set-info :license "https://creativecommons.org/licenses/by/4.0/")
(set-info :category "industrial")
(set-info :status sat)
(declare-fun Nl2main_x1 () Int)
(declare-fun Nl2main_y1 () Int)
(declare-fun Nl2main_z1 () Int)
(declare-fun Nl2main_res1 () Int)
(declare-fun Nl2main_x2 () Int)
(declare-fun Nl2main_y2 () Int)
(declare-fun Nl2main_z2 () Int)
(declare-fun Nl2main_res2 () Int)
(declare-fun lam0n0 () Int)
(declare-fun lam0n1 () Int)
(declare-fun lam0n2 () Int)
(declare-fun lam0n3 () Int)
(declare-fun lam0n5 () Int)
(declare-fun lam0n6 () Int)
(declare-fun Nl2CT1 () Int)
(declare-fun Nl2CT2 () Int)
(declare-fun lam0n4 () Int)
(declare-fun lam1n0 () Int)
(declare-fun lam1n1 () Int)
(declare-fun lam1n2 () Int)
(declare-fun lam1n3 () Int)
(declare-fun lam1n5 () Int)
(declare-fun lam1n6 () Int)
(declare-fun lam1n4 () Int)
(declare-fun lam2n0 () Int)
(declare-fun lam2n1 () Int)
(declare-fun lam2n2 () Int)
(declare-fun lam2n3 () Int)
(declare-fun lam2n5 () Int)
(declare-fun lam2n6 () Int)
(declare-fun lam2n4 () Int)
(declare-fun lam3n0 () Int)
(declare-fun lam3n1 () Int)
(declare-fun lam3n2 () Int)
(declare-fun lam3n3 () Int)
(declare-fun lam3n4 () Int)
(declare-fun lam3n5 () Int)
(declare-fun lam3n6 () Int)
(declare-fun lam3n7 () Int)
(declare-fun lam4n0 () Int)
(declare-fun lam4n1 () Int)
(declare-fun lam4n2 () Int)
(declare-fun lam4n3 () Int)
(declare-fun lam4n4 () Int)
(declare-fun lam4n5 () Int)
(declare-fun lam4n6 () Int)
(declare-fun lam4n7 () Int)
(declare-fun lam5n0 () Int)
(declare-fun lam5n1 () Int)
(declare-fun lam5n2 () Int)
(declare-fun lam5n3 () Int)
(declare-fun lam5n4 () Int)
(declare-fun lam5n5 () Int)
(declare-fun lam5n6 () Int)
(declare-fun lam5n7 () Int)
(declare-fun lam6n0 () Int)
(declare-fun lam6n1 () Int)
(declare-fun lam6n2 () Int)
(declare-fun lam6n3 () Int)
(declare-fun lam7n0 () Int)
(declare-fun lam7n1 () Int)
(declare-fun lam7n2 () Int)
(declare-fun lam7n3 () Int)
(declare-fun main_x () Int)
(declare-fun undef3 () Int)
(declare-fun main_y () Int)
(declare-fun undef4 () Int)
(declare-fun main_z () Int)
(declare-fun main_res () Int)
(declare-fun FV_main_x_2 () Int)
(declare-fun FV_main_y_2 () Int)
(declare-fun FV_main_z_2 () Int)
(declare-fun FV_main_res_2 () Int)
(declare-fun lam8n0 () Int)
(declare-fun lam8n1 () Int)
(declare-fun lam8n2 () Int)
(declare-fun lam8n3 () Int)
(declare-fun lam8n4 () Int)
(declare-fun lam8n5 () Int)
(declare-fun lam8n6 () Int)
(declare-fun FV_main_res_3 () Int)
(declare-fun FV_main_x_3 () Int)
(declare-fun FV_main_y_3 () Int)
(declare-fun FV_main_z_3 () Int)
(assert ( and ( <= ( - 1 ) Nl2main_x1 ) ( <= Nl2main_x1 1 ) ( <= ( - 1 ) Nl2main_y1 ) ( <= Nl2main_y1 1 ) ( <= ( - 1 ) Nl2main_z1 ) ( <= Nl2main_z1 1 ) ( <= ( - 1 ) Nl2main_res1 ) ( <= Nl2main_res1 1 ) ( <= ( - 1 ) Nl2main_x2 ) ( <= Nl2main_x2 1 ) ( <= ( - 1 ) Nl2main_y2 ) ( <= Nl2main_y2 1 ) ( <= ( - 1 ) Nl2main_z2 ) ( <= Nl2main_z2 1 ) ( <= ( - 1 ) Nl2main_res2 ) ( <= Nl2main_res2 1 ) ))
(assert ( or ( and ( >= lam0n0 0 ) ( >= lam0n1 0 ) ( >= lam0n2 0 ) ( >= lam0n3 0 ) ( >= lam0n5 0 ) ( >= lam0n6 0 ) ( > ( + ( * 1 lam0n1 ) ( * 1 lam0n2 ) ( * 1 lam0n3 ) ( * Nl2CT1 lam0n5 ) ( * Nl2CT2 lam0n6 ) ( - 1 ) ) 0 ) ( = ( + ( * ( - 1 ) lam0n1 ) ( * Nl2main_x1 lam0n5 ) ( * Nl2main_x2 lam0n6 ) ) 0 ) ( = ( + ( * ( - 1 ) lam0n1 ) ( * 1 lam0n2 ) ( * 1 lam0n4 ) ( * Nl2main_y1 lam0n5 ) ( * Nl2main_y2 lam0n6 ) ) 0 ) ( = ( + ( * 1 lam0n1 ) ( * ( - 1 ) lam0n2 ) ( * ( - 1 ) lam0n3 ) ( * Nl2main_z1 lam0n5 ) ( * Nl2main_z2 lam0n6 ) ) 0 ) ( = ( + ( * ( - 1 ) lam0n0 ) ( * 1 lam0n1 ) ( * Nl2main_res1 lam0n5 ) ( * Nl2main_res2 lam0n6 ) ) 0 ) ) ( and ( >= lam1n0 0 ) ( >= lam1n1 0 ) ( >= lam1n2 0 ) ( >= lam1n3 0 ) ( >= lam1n5 0 ) ( >= lam1n6 0 ) ( > ( + ( * 1 lam1n1 ) ( * 1 lam1n2 ) ( * 1 lam1n3 ) ( * Nl2CT1 lam1n5 ) ( * Nl2CT2 lam1n6 ) ( - 1 ( + ( + Nl2CT1 ( * Nl2main_y1 0 ) ) ( * Nl2main_res1 1 ) ) ) ) 0 ) ( = ( + ( * ( - 1 ) lam1n1 ) ( * Nl2main_x1 lam1n5 ) ( * Nl2main_x2 lam1n6 ) ( - ( + 0 Nl2main_x1 ) ) ) 0 ) ( = ( + ( * ( - 1 ) lam1n1 ) ( * 1 lam1n2 ) ( * 1 lam1n4 ) ( * Nl2main_y1 lam1n5 ) ( * Nl2main_y2 lam1n6 ) ) 0 ) ( = ( + ( * 1 lam1n1 ) ( * ( - 1 ) lam1n2 ) ( * ( - 1 ) lam1n3 ) ( * Nl2main_z1 lam1n5 ) ( * Nl2main_z2 lam1n6 ) ( - ( + ( + 0 ( * Nl2main_y1 1 ) ) Nl2main_z1 ) ) ) 0 ) ( = ( + ( * ( - 1 ) lam1n0 ) ( * 1 lam1n1 ) ( * Nl2main_res1 lam1n5 ) ( * Nl2main_res2 lam1n6 ) ( - ( + 0 ( * Nl2main_res1 1 ) ) ) ) 0 ) ) ))
(assert ( or ( and ( >= lam0n0 0 ) ( >= lam0n1 0 ) ( >= lam0n2 0 ) ( >= lam0n3 0 ) ( >= lam0n5 0 ) ( >= lam0n6 0 ) ( > ( + ( * 1 lam0n1 ) ( * 1 lam0n2 ) ( * 1 lam0n3 ) ( * Nl2CT1 lam0n5 ) ( * Nl2CT2 lam0n6 ) ( - 1 ) ) 0 ) ( = ( + ( * ( - 1 ) lam0n1 ) ( * Nl2main_x1 lam0n5 ) ( * Nl2main_x2 lam0n6 ) ) 0 ) ( = ( + ( * ( - 1 ) lam0n1 ) ( * 1 lam0n2 ) ( * 1 lam0n4 ) ( * Nl2main_y1 lam0n5 ) ( * Nl2main_y2 lam0n6 ) ) 0 ) ( = ( + ( * 1 lam0n1 ) ( * ( - 1 ) lam0n2 ) ( * ( - 1 ) lam0n3 ) ( * Nl2main_z1 lam0n5 ) ( * Nl2main_z2 lam0n6 ) ) 0 ) ( = ( + ( * ( - 1 ) lam0n0 ) ( * 1 lam0n1 ) ( * Nl2main_res1 lam0n5 ) ( * Nl2main_res2 lam0n6 ) ) 0 ) ) ( and ( >= lam2n0 0 ) ( >= lam2n1 0 ) ( >= lam2n2 0 ) ( >= lam2n3 0 ) ( >= lam2n5 0 ) ( >= lam2n6 0 ) ( > ( + ( * 1 lam2n1 ) ( * 1 lam2n2 ) ( * 1 lam2n3 ) ( * Nl2CT1 lam2n5 ) ( * Nl2CT2 lam2n6 ) ( - 1 ( + ( + Nl2CT2 ( * Nl2main_y2 0 ) ) ( * Nl2main_res2 1 ) ) ) ) 0 ) ( = ( + ( * ( - 1 ) lam2n1 ) ( * Nl2main_x1 lam2n5 ) ( * Nl2main_x2 lam2n6 ) ( - ( + 0 Nl2main_x2 ) ) ) 0 ) ( = ( + ( * ( - 1 ) lam2n1 ) ( * 1 lam2n2 ) ( * 1 lam2n4 ) ( * Nl2main_y1 lam2n5 ) ( * Nl2main_y2 lam2n6 ) ) 0 ) ( = ( + ( * 1 lam2n1 ) ( * ( - 1 ) lam2n2 ) ( * ( - 1 ) lam2n3 ) ( * Nl2main_z1 lam2n5 ) ( * Nl2main_z2 lam2n6 ) ( - ( + ( + 0 ( * Nl2main_y2 1 ) ) Nl2main_z2 ) ) ) 0 ) ( = ( + ( * ( - 1 ) lam2n0 ) ( * 1 lam2n1 ) ( * Nl2main_res1 lam2n5 ) ( * Nl2main_res2 lam2n6 ) ( - ( + 0 ( * Nl2main_res2 1 ) ) ) ) 0 ) ) ))
(assert ( or ( and ( >= lam3n0 0 ) ( >= lam3n1 0 ) ( >= lam3n2 0 ) ( >= lam3n3 0 ) ( >= lam3n4 0 ) ( >= lam3n5 0 ) ( >= lam3n6 0 ) ( >= lam3n7 0 ) ( > ( + ( * 1 lam3n2 ) ( * 1 lam3n3 ) ( * 1 lam3n4 ) ( * 1 lam3n5 ) ( * Nl2CT1 lam3n6 ) ( * Nl2CT2 lam3n7 ) ( - 1 ) ) 0 ) ( = ( + ( * ( - 1 ) lam3n2 ) ( * ( - 1 ) lam3n3 ) ( * Nl2main_x1 lam3n6 ) ( * Nl2main_x2 lam3n7 ) ) 0 ) ( = ( + ( * 1 lam3n0 ) ( * ( - 1 ) lam3n3 ) ( * ( - 1 ) lam3n4 ) ( * Nl2main_y1 lam3n6 ) ( * Nl2main_y2 lam3n7 ) ) 0 ) ( = ( + ( * ( - 1 ) lam3n0 ) ( * 1 lam3n3 ) ( * ( - 1 ) lam3n5 ) ( * Nl2main_z1 lam3n6 ) ( * Nl2main_z2 lam3n7 ) ) 0 ) ( = ( + ( * ( - 1 ) lam3n1 ) ( * 1 lam3n3 ) ( * Nl2main_res1 lam3n6 ) ( * Nl2main_res2 lam3n7 ) ) 0 ) ) ( and ( >= lam4n0 0 ) ( >= lam4n1 0 ) ( >= lam4n2 0 ) ( >= lam4n3 0 ) ( >= lam4n4 0 ) ( >= lam4n5 0 ) ( >= lam4n6 0 ) ( >= lam4n7 0 ) ( > ( + ( * 1 lam4n2 ) ( * 1 lam4n3 ) ( * 1 lam4n4 ) ( * 1 lam4n5 ) ( * Nl2CT1 lam4n6 ) ( * Nl2CT2 lam4n7 ) ( - 1 ( + ( + Nl2CT1 ( * Nl2main_x1 1 ) ) ( * Nl2main_y1 ( - 1 ) ) ) ) ) 0 ) ( = ( + ( * ( - 1 ) lam4n2 ) ( * ( - 1 ) lam4n3 ) ( * Nl2main_x1 lam4n6 ) ( * Nl2main_x2 lam4n7 ) ( - ( + 0 ( * Nl2main_x1 1 ) ) ) ) 0 ) ( = ( + ( * 1 lam4n0 ) ( * ( - 1 ) lam4n3 ) ( * ( - 1 ) lam4n4 ) ( * Nl2main_y1 lam4n6 ) ( * Nl2main_y2 lam4n7 ) ( - ( + 0 ( * Nl2main_y1 1 ) ) ) ) 0 ) ( = ( + ( * ( - 1 ) lam4n0 ) ( * 1 lam4n3 ) ( * ( - 1 ) lam4n5 ) ( * Nl2main_z1 lam4n6 ) ( * Nl2main_z2 lam4n7 ) ( - ( + 0 Nl2main_z1 ) ) ) 0 ) ( = ( + ( * ( - 1 ) lam4n1 ) ( * 1 lam4n3 ) ( * Nl2main_res1 lam4n6 ) ( * Nl2main_res2 lam4n7 ) ( - ( + 0 Nl2main_res1 ) ) ) 0 ) ) ))
(assert ( or ( and ( >= lam3n0 0 ) ( >= lam3n1 0 ) ( >= lam3n2 0 ) ( >= lam3n3 0 ) ( >= lam3n4 0 ) ( >= lam3n5 0 ) ( >= lam3n6 0 ) ( >= lam3n7 0 ) ( > ( + ( * 1 lam3n2 ) ( * 1 lam3n3 ) ( * 1 lam3n4 ) ( * 1 lam3n5 ) ( * Nl2CT1 lam3n6 ) ( * Nl2CT2 lam3n7 ) ( - 1 ) ) 0 ) ( = ( + ( * ( - 1 ) lam3n2 ) ( * ( - 1 ) lam3n3 ) ( * Nl2main_x1 lam3n6 ) ( * Nl2main_x2 lam3n7 ) ) 0 ) ( = ( + ( * 1 lam3n0 ) ( * ( - 1 ) lam3n3 ) ( * ( - 1 ) lam3n4 ) ( * Nl2main_y1 lam3n6 ) ( * Nl2main_y2 lam3n7 ) ) 0 ) ( = ( + ( * ( - 1 ) lam3n0 ) ( * 1 lam3n3 ) ( * ( - 1 ) lam3n5 ) ( * Nl2main_z1 lam3n6 ) ( * Nl2main_z2 lam3n7 ) ) 0 ) ( = ( + ( * ( - 1 ) lam3n1 ) ( * 1 lam3n3 ) ( * Nl2main_res1 lam3n6 ) ( * Nl2main_res2 lam3n7 ) ) 0 ) ) ( and ( >= lam5n0 0 ) ( >= lam5n1 0 ) ( >= lam5n2 0 ) ( >= lam5n3 0 ) ( >= lam5n4 0 ) ( >= lam5n5 0 ) ( >= lam5n6 0 ) ( >= lam5n7 0 ) ( > ( + ( * 1 lam5n2 ) ( * 1 lam5n3 ) ( * 1 lam5n4 ) ( * 1 lam5n5 ) ( * Nl2CT1 lam5n6 ) ( * Nl2CT2 lam5n7 ) ( - 1 ( + ( + Nl2CT2 ( * Nl2main_x2 1 ) ) ( * Nl2main_y2 ( - 1 ) ) ) ) ) 0 ) ( = ( + ( * ( - 1 ) lam5n2 ) ( * ( - 1 ) lam5n3 ) ( * Nl2main_x1 lam5n6 ) ( * Nl2main_x2 lam5n7 ) ( - ( + 0 ( * Nl2main_x2 1 ) ) ) ) 0 ) ( = ( + ( * 1 lam5n0 ) ( * ( - 1 ) lam5n3 ) ( * ( - 1 ) lam5n4 ) ( * Nl2main_y1 lam5n6 ) ( * Nl2main_y2 lam5n7 ) ( - ( + 0 ( * Nl2main_y2 1 ) ) ) ) 0 ) ( = ( + ( * ( - 1 ) lam5n0 ) ( * 1 lam5n3 ) ( * ( - 1 ) lam5n5 ) ( * Nl2main_z1 lam5n6 ) ( * Nl2main_z2 lam5n7 ) ( - ( + 0 Nl2main_z2 ) ) ) 0 ) ( = ( + ( * ( - 1 ) lam5n1 ) ( * 1 lam5n3 ) ( * Nl2main_res1 lam5n6 ) ( * Nl2main_res2 lam5n7 ) ( - ( + 0 Nl2main_res2 ) ) ) 0 ) ) ))
(assert ( and ( <= ( + Nl2CT1 ( * Nl2main_x1 FV_main_x_2 ) ( * Nl2main_y1 FV_main_y_2 ) ( * Nl2main_z1 FV_main_z_2 ) ( * Nl2main_res1 FV_main_res_2 ) ) 0 ) ( <= ( + Nl2CT2 ( * Nl2main_x2 FV_main_x_2 ) ( * Nl2main_y2 FV_main_y_2 ) ( * Nl2main_z2 FV_main_z_2 ) ( * Nl2main_res2 FV_main_res_2 ) ) 0 ) ( <= ( + 1 ( * ( - 1 ) FV_main_z_2 ) ) 0 ) ( <= ( * ( - 1 ) FV_main_res_2 ) 0 ) ( <= ( + FV_main_y_2 ( * ( - 1 ) FV_main_z_2 ) ) 0 ) ))
(assert ( and ( >= lam8n0 0 ) ( >= lam8n1 0 ) ( >= lam8n2 0 ) ( >= lam8n3 0 ) ( >= lam8n4 0 ) ( >= lam8n5 0 ) ( >= lam8n6 0 ) ( > ( + ( * 1 lam8n1 ) ( * 1 lam8n2 ) ( * 1 lam8n3 ) ( * 1 lam8n4 ) ( * Nl2CT1 lam8n5 ) ( * Nl2CT2 lam8n6 ) ( - 1 ) ) 0 ) ( = ( + ( * ( - 1 ) lam8n1 ) ( * Nl2main_x1 lam8n5 ) ( * Nl2main_x2 lam8n6 ) ) 0 ) ( = ( + ( * ( - 1 ) lam8n1 ) ( * 1 lam8n2 ) ( * 1 lam8n3 ) ( * Nl2main_y1 lam8n5 ) ( * Nl2main_y2 lam8n6 ) ) 0 ) ( = ( + ( * 1 lam8n1 ) ( * ( - 1 ) lam8n3 ) ( * ( - 1 ) lam8n4 ) ( * Nl2main_z1 lam8n5 ) ( * Nl2main_z2 lam8n6 ) ) 0 ) ( = ( + ( * ( - 1 ) lam8n0 ) ( * 1 lam8n1 ) ( * Nl2main_res1 lam8n5 ) ( * Nl2main_res2 lam8n6 ) ) 0 ) ))
(assert ( and ( and ( <= ( + Nl2CT1 ( * Nl2main_res1 FV_main_res_3 ) ( * Nl2main_x1 FV_main_x_3 ) ( * Nl2main_y1 FV_main_y_3 ) ( * Nl2main_z1 FV_main_z_3 ) ) 0 ) ( <= ( + Nl2CT2 ( * Nl2main_res2 FV_main_res_3 ) ( * Nl2main_x2 FV_main_x_3 ) ( * Nl2main_y2 FV_main_y_3 ) ( * Nl2main_z2 FV_main_z_3 ) ) 0 ) ) ( or ( and ( <= ( * ( - 1 ) FV_main_res_3 ) 0 ) ( <= ( + 1 FV_main_res_3 ( * ( - 1 ) FV_main_x_3 ) ( * ( - 1 ) FV_main_y_3 ) FV_main_z_3 ) 0 ) ( <= ( + 1 FV_main_y_3 ( * ( - 1 ) FV_main_z_3 ) ) 0 ) ( <= ( + 1 ( * ( - 1 ) FV_main_z_3 ) ) 0 ) ( = FV_main_y_3 0 ) ) ( and ( <= ( + FV_main_y_3 ( * ( - 1 ) FV_main_z_3 ) ) 0 ) ( <= ( * ( - 1 ) FV_main_res_3 ) 0 ) ( <= ( + 1 ( * ( - 1 ) FV_main_x_3 ) ) 0 ) ( <= ( + 1 FV_main_res_3 ( * ( - 1 ) FV_main_x_3 ) ( * ( - 1 ) FV_main_y_3 ) FV_main_z_3 ) 0 ) ( <= ( + 1 ( * ( - 1 ) FV_main_y_3 ) ) 0 ) ( <= ( + 1 ( * ( - 1 ) FV_main_z_3 ) ) 0 ) ) ) ))
(check-sat)
(exit)
